CapLotSizing_PM/src/Instancias/NCLSHT/6i18p2m/NBA06.OUT
 CG ITER, OVMR, OVMRUB =           1   24425.7070312   24425.7070312
 CG ITER, OVMR, OVMRUB =           2   23586.0097656   24425.7070312
 CG ITER, OVMR, OVMRUB =           3   19291.5156250   24425.7070312
 CG ITER, OVMR, OVMRUB =           4   20020.4531250   24425.7070312
 CG ITER, OVMR, OVMRUB =           5   19386.2695312   24425.7070312
 CG ITER, OVMR, OVMRUB =           6   20023.6074219   24425.7070312
 CG ITER, OVMR, OVMRUB =           7   20359.3085938   24425.7070312
 CG ITER, OVMR, OVMRUB =           8   20513.3437500   24425.7070312
 CG ITER, OVMR, OVMRUB =           9   20854.7031250   24425.7070312
 CG ITER, OVMR, OVMRUB =          10   21098.2265625   24425.7070312
 CG ITER, OVMR, OVMRUB =          11   21297.0253906   24425.7070312
 CG ITER, OVMR, OVMRUB =          12   21497.4609375   24425.7070312
 CG ITER, OVMR, OVMRUB =          13   21630.9960938   24425.7070312
 CG ITER, OVMR, OVMRUB =          14   21868.9414062   24425.7070312
 CG ITER, OVMR, OVMRUB =          15   22006.5703125   24425.7070312
 CG ITER, OVMR, OVMRUB =          16   22139.4550781   24425.7070312
 CG ITER, OVMR, OVMRUB =          17   22286.3105469   24382.2070312
 CG ITER, OVMR, OVMRUB =          18   22396.6621094   24262.5078125
 CG ITER, OVMR, OVMRUB =          19   22505.1738281   24262.5078125
 CG ITER, OVMR, OVMRUB =          20   22574.6113281   24262.5078125
 CG ITER, OVMR, OVMRUB =          21   22612.0703125   24130.1152344
 CG ITER, OVMR, OVMRUB =          22   22625.0078125   24130.1152344
 CG ITER, OVMR, OVMRUB =          23   22633.7929688   24130.1152344
 CG ITER, OVMR, OVMRUB =          24   22642.3632812   24130.1152344
 CG ITER, OVMR, OVMRUB =          25   22649.9375000   24130.1152344
 CG ITER, OVMR, OVMRUB =          26   22652.5195312   24130.1152344
 CG ITER, OVMR, OVMRUB =          27   22654.1933594   24130.1152344
 CG ITER, OVMR, OVMRUB =          28   22653.2402344   24130.1152344
 CG ITER, OVMR, OVMRUB =          29   22650.5957031   24130.1152344
 CG ITER, OVMR, OVMRUB =          30   22650.6777344   24130.1152344
 CG ITER, OVMR, OVMRUB =          31   22650.5039062   24130.1152344
 CG ITER, OVMR, OVMRUB =          32   22650.4921875   24130.1152344
 CG ITER, OVMR, OVMRUB =          33   22651.0625000   24130.1152344
 CG ITER, OVMR, OVMRUB =          34   22651.3671875   24130.1152344
 CG ITER, OVMR, OVMRUB =          35   22650.6601562   23950.7617188
 CG ITER, OVMR, OVMRUB =          36   22651.0781250   23950.7617188
 CG ITER, OVMR, OVMRUB =          37   22648.9843750   23950.7617188
 CG ITER, OVMR, OVMRUB =          38   22648.2226562   23950.7617188
 CG ITER, OVMR, OVMRUB =          39   22648.0468750   23950.7617188
 CG ITER, OVMR, OVMRUB =          40   22648.5410156   23950.7617188
 CG ITER, OVMR, OVMRUB =          41   22648.5410156   23950.7617188
OVLB =   22648.5410156 OVLUB =   23950.7617188 TIME =       7.6300001
